language ESSENCE' 1.0

letting fixed be 
[
    [0,9,7,1,0,3,0,4,0],
    [0,3,0,0,4,0,7,0,0],
    [0,0,0,6,7,0,0,0,3],
    [2,7,3,9,1,4,5,8,6],
    [9,8,6,0,0,7,1,0,4],
    [1,5,4,0,6,8,0,0,7],
    [7,0,0,0,9,1,0,0,0],
    [0,0,9,7,3,6,0,5,0],
    [3,6,0,0,0,0,0,7,0]
]